1
1000
45
151 2
152 6
153 1
154 1
155 2
156 1
157 2
158 5
159 3
160 1
161 2
163 3
164 2
165 5
166 2
167 2
168 1
169 4
170 5
171 1
172 3
173 2
175 5
178 2
179 2
180 4
181 8
182 3
183 1
184 2
185 3
186 2
187 5
188 2
189 3
190 3
191 3
192 1
193 3
195 1
196 3
197 2
198 3
199 1
200 2
